
Log started (V11.0.0) Sat May 17 19:55:56 2008

Tried aggregator 1 time.
Reduced MIP has 150 rows, 5001 columns, and 10050 nonzeros.
Presolve time =    0.05 sec.
Clique table members: 100.
MIP emphasis: balance optimality and feasibility.
MIP search method: dynamic search.
Parallel mode: none, using 1 thread.
Root relaxation solution time =    0.20 sec.

        Nodes                                         Cuts/
   Node  Left     Objective  IInf  Best Integer     Best Node    ItCnt     Gap

*     0+    0                       104811.0000     2004.3373      477   98.09%
*     0+    0                         2023.0000     2004.3373      477    0.92%
      0     0     2007.0021    74     2023.0000      Fract: 5      509    0.79%
      0     0     2007.0021    86     2023.0000       Cuts: 6      551    0.79%
      0     0     2007.0021    89     2023.0000      Cuts: 10      583    0.79%
*     0+    0                         2020.0000     2007.0021      583    0.64%
      0     2     2007.0021    89     2020.0000     2007.0021      583    0.64%
    100    22        cutoff           2020.0000     2007.0021     5399    0.64%
*   110+   26                         2019.0000     2007.0021     6048    0.59%
    200    44        cutoff           2019.0000     2007.0021    13824    0.59%
    300    52        cutoff           2019.0000     2007.0021    19615    0.59%
    400    72        cutoff           2019.0000     2007.0021    25910    0.59%
    500   102        cutoff           2019.0000     2007.0021    30995    0.59%
*   533+   77                         2014.0000     2010.0000    32915    0.20%
*   533+   50                         2012.0000     2010.0000    32915    0.10%

Cover cuts applied:  1
Implied bound cuts applied:  4
Gomory fractional cuts applied:  4

Solution pool: 6 solutions saved.

MIP - Integer optimal solution:  Objective = 2.0120000000e+003
Solution time =   12.20 sec.  Iterations = 32273  Nodes = 533


Incumbent solution
Variable Name           Solution Value
Cmax                       2012.000000
X_1_30                        1.000000
X_2_23                        1.000000
X_3_5                         1.000000
X_4_18                        1.000000
X_5_25                        1.000000
X_6_45                        1.000000
X_7_26                        1.000000
X_8_7                         1.000000
X_9_50                        1.000000
X_10_29                       1.000000
X_11_7                        1.000000
X_12_43                       1.000000
X_13_14                       1.000000
X_14_25                       1.000000
X_15_50                       1.000000
X_16_27                       1.000000
X_17_8                        1.000000
X_18_15                       1.000000
X_19_19                       1.000000
X_20_45                       1.000000
X_21_21                       1.000000
X_22_17                       1.000000
X_23_46                       1.000000
X_24_49                       1.000000
X_25_28                       1.000000
X_26_26                       1.000000
X_27_46                       1.000000
X_28_13                       1.000000
X_29_11                       1.000000
X_30_27                       1.000000
X_31_14                       1.000000
X_32_19                       1.000000
X_33_10                       1.000000
X_34_29                       1.000000
X_35_47                       1.000000
X_36_18                       1.000000
X_37_32                       1.000000
X_38_24                       1.000000
X_39_4                        1.000000
X_40_36                       1.000000
X_41_24                       1.000000
X_42_22                       1.000000
X_43_36                       1.000000
X_44_39                       1.000000
X_45_34                       1.000000
X_46_39                       1.000000
X_47_30                       1.000000
X_48_6                        1.000000
X_49_38                       1.000000
X_50_1                        1.000000
X_51_13                       1.000000
X_52_20                       1.000000
X_53_31                       1.000000
X_54_40                       1.000000
X_55_12                       1.000000
X_56_6                        1.000000
X_57_2                        1.000000
X_58_28                       1.000000
X_59_41                       1.000000
X_60_48                       1.000000
X_61_17                       1.000000
X_62_8                        1.000000
X_63_42                       1.000000
X_64_37                       1.000000
X_65_47                       1.000000
X_66_11                       1.000000
X_67_21                       1.000000
X_68_16                       1.000000
X_69_12                       1.000000
X_70_16                       1.000000
X_71_42                       1.000000
X_72_48                       1.000000
X_73_40                       1.000000
X_74_33                       1.000000
X_75_38                       1.000000
X_76_32                       1.000000
X_77_43                       1.000000
X_78_34                       1.000000
X_79_23                       1.000000
X_80_15                       1.000000
X_81_4                        1.000000
X_82_10                       1.000000
X_83_44                       1.000000
X_84_9                        1.000000
X_85_2                        1.000000
X_86_41                       1.000000
X_87_3                        1.000000
X_88_22                       1.000000
X_89_9                        1.000000
X_90_35                       1.000000
X_91_44                       1.000000
X_92_5                        1.000000
X_93_33                       1.000000
X_94_20                       1.000000
X_95_31                       1.000000
X_96_3                        1.000000
X_97_1                        1.000000
X_98_37                       1.000000
X_99_35                       1.000000
X_100_49                      1.000000
All other variables in the range 1-5001 are 0.
